\ Model vert
\ LP format - for model browsing. Use MPS format to capture full model detail.
Minimize
  - 688066.9885707342 S_coef + 10223.04356093347 Constant + [
   2.3155344e+07 S_coef ^2 ] / 2 
Subject To
Bounds
 -1000 <= S_coef <= 0
 Constant = 1
End
